p cnf 10 22
10 9 7 0
-10 9 4 0
-10 -7 4 0
-10 -6 -3 0
10 4 3 0
10 3 2 0
9 7 3 0
9 7 1 0
9 -5 -2 0
8 7 -4 0
-8 -5 2 0
-8 -4 -3 0
-7 6 -5 0
-7 -6 -3 0
7 -5 1 0
7 2 1 0
6 5 -2 0
-6 -3 -2 0
6 -3 -1 0
-5 3 1 0
-4 3 -2 0
4 -3 1 0
